NAME : in_house_9_8
TYPE : TSP
DIMENSION : 9
EDGE_WEIGHT_TYPE : EXPLICIT
EDGE_WEIGHT_FORMAT : UPPER_ROW
COMMENT : INVERSION_SHIFT=6
EDGE_WEIGHT_SECTION
38
21
14
13
9
44
11
42
64
73
24
21
29
28
15
23
19
40
7
34
65
28
18
78
68
8
39
58
37
52
32
33
80
37
29
44
